; benchmark generated from python API
(set-info :status unknown)
(declare-fun strlen_85_64 () (_ BitVec 64))
(declare-fun args_1_8 () (_ BitVec 8))
(declare-fun strlen_83_64 () (_ BitVec 64))
(declare-fun strncmp_ret_84_32 () (_ BitVec 32))
(declare-fun strncmp_ret_86_32 () (_ BitVec 32))
(declare-fun filesize_file_0_/proc/self/loginuid_88_64 () (_ BitVec 64))
(declare-fun syscall_stub_ioctl_94_32 () (_ BitVec 32))
(declare-fun strlen_121_64 () (_ BitVec 64))
(declare-fun mem_7fffffffffef425_120_1032 () (_ BitVec 1032))
(declare-fun access_144_32 () (_ BitVec 32))
(declare-fun access_735_32 () (_ BitVec 32))
(declare-fun mem_2c_3020_264 () (_ BitVec 264))
(declare-fun strlen_3021_64 () (_ BitVec 64))
(assert
 (let ((?x751 (bvadd (_ bv576460752303357826 64) strlen_85_64)))
 (let (($x69 (= (_ bv0 8) args_1_8)))
 (let ((?x46 (ite $x69 (_ bv576460752303357826 64) (_ bv576460752303357827 64))))
 (= ?x46 ?x751)))))
(assert
 (let ((?x101 (bvadd (_ bv576460752303357826 64) strlen_83_64)))
 (let (($x69 (= (_ bv0 8) args_1_8)))
 (let ((?x46 (ite $x69 (_ bv576460752303357826 64) (_ bv576460752303357827 64))))
 (= ?x46 ?x101)))))
(assert
 (let (($x104 (bvule (_ bv2 64) strlen_83_64)))
 (let (($x48 (= (_ bv2 64) strlen_83_64)))
 (let (($x122 (or $x48 $x104)))
 (let (($x123 (not $x122)))
 (let (($x57 (= (_ bv45 8) args_1_8)))
 (let (($x121 (not $x57)))
 (or $x121 $x123))))))))
(assert
 (= (_ bv1 32) strncmp_ret_84_32))
(assert
 (= (_ bv1 32) strncmp_ret_86_32))
(assert
 true)
(assert
 (let ((?x1236 ((_ extract 3 0) filesize_file_0_/proc/self/loginuid_88_64)))
 (let (($x1210 (bvsge (_ bv0 64) filesize_file_0_/proc/self/loginuid_88_64)))
 (let ((?x99 (ite $x1210 (_ bv0 4) ?x1236)))
 (let (($x1110 (bvule ?x99 (_ bv12 4))))
 (let (($x119703 (not $x1110)))
 (let ((?x1214 ((_ extract 63 63) filesize_file_0_/proc/self/loginuid_88_64)))
 (let (($x116245 (= (_ bv1 1) ?x1214)))
 (let (($x119835 (not $x116245)))
 (let ((?x1229 ((_ extract 63 4) filesize_file_0_/proc/self/loginuid_88_64)))
 (let (($x523 (= (_ bv0 60) ?x1229)))
 (let (($x516 (or $x1210 $x523)))
 (let (($x119942 (not $x516)))
 (let (($x119586 (or $x119942 $x119835 $x1210 $x119703)))
 (let (($x116912 (not $x119586)))
 (let (($x116860 (= (_ bv0 64) filesize_file_0_/proc/self/loginuid_88_64)))
 (let (($x117248 (or $x116860 $x1210)))
 (let (($x119482 (not $x117248)))
 (let (($x47155 (or $x119942 $x119703 $x119482)))
 (let (($x118344 (not $x47155)))
 (or $x118344 $x116912)))))))))))))))))))))
(assert
 (let (($x1210 (bvsge (_ bv0 64) filesize_file_0_/proc/self/loginuid_88_64)))
 (let ((?x1217 (ite $x1210 (_ bv0 64) filesize_file_0_/proc/self/loginuid_88_64)))
 (let ((?x1236 ((_ extract 3 0) filesize_file_0_/proc/self/loginuid_88_64)))
 (let ((?x99 (ite $x1210 (_ bv0 4) ?x1236)))
 (let (($x1110 (bvule ?x99 (_ bv12 4))))
 (let ((?x1229 ((_ extract 63 4) filesize_file_0_/proc/self/loginuid_88_64)))
 (let (($x523 (= (_ bv0 60) ?x1229)))
 (let (($x516 (or $x1210 $x523)))
 (let (($x975 (and $x516 $x1110)))
 (let ((?x1169 (ite $x975 ?x1217 (_ bv12 64))))
 (bvule ?x1169 (_ bv18446744073709547520 64)))))))))))))
(assert
 (let ((?x48102 ((_ extract 31 31) syscall_stub_ioctl_94_32)))
 (let (($x485723 (= (_ bv0 1) ?x48102)))
 (not $x485723))))
(assert
 (let ((?x51999 (bvadd (_ bv576460752303354917 64) strlen_121_64)))
 (let ((?x40251 ((_ extract 559 552) mem_7fffffffffef425_120_1032)))
 (let (($x47906 (= (_ bv0 8) ?x40251)))
 (let ((?x48103 (ite $x47906 (_ bv576460752303354976 64) (_ bv0 64))))
 (let ((?x2959 ((_ extract 567 560) mem_7fffffffffef425_120_1032)))
 (let (($x40382 (= (_ bv0 8) ?x2959)))
 (let ((?x3100 (ite $x40382 (_ bv576460752303354975 64) ?x48103)))
 (let ((?x3140 ((_ extract 575 568) mem_7fffffffffef425_120_1032)))
 (let (($x47711 (= (_ bv0 8) ?x3140)))
 (let ((?x40491 (ite $x47711 (_ bv576460752303354974 64) ?x3100)))
 (let ((?x47973 ((_ extract 583 576) mem_7fffffffffef425_120_1032)))
 (let (($x40613 (= (_ bv0 8) ?x47973)))
 (let ((?x40599 (ite $x40613 (_ bv576460752303354973 64) ?x40491)))
 (let ((?x48933 ((_ extract 591 584) mem_7fffffffffef425_120_1032)))
 (let (($x45945 (= (_ bv0 8) ?x48933)))
 (let ((?x2890 (ite $x45945 (_ bv576460752303354972 64) ?x40599)))
 (let ((?x52435 ((_ extract 599 592) mem_7fffffffffef425_120_1032)))
 (let (($x2813 (= (_ bv0 8) ?x52435)))
 (let ((?x51967 (ite $x2813 (_ bv576460752303354971 64) ?x2890)))
 (let ((?x47846 ((_ extract 607 600) mem_7fffffffffef425_120_1032)))
 (let (($x3269 (= (_ bv0 8) ?x47846)))
 (let ((?x3072 (ite $x3269 (_ bv576460752303354970 64) ?x51967)))
 (let ((?x3001 ((_ extract 615 608) mem_7fffffffffef425_120_1032)))
 (let (($x2358 (= (_ bv0 8) ?x3001)))
 (let ((?x688 (ite $x2358 (_ bv576460752303354969 64) ?x3072)))
 (let ((?x47191 ((_ extract 623 616) mem_7fffffffffef425_120_1032)))
 (let (($x45352 (= (_ bv0 8) ?x47191)))
 (let ((?x40526 (ite $x45352 (_ bv576460752303354968 64) ?x688)))
 (let ((?x52654 ((_ extract 631 624) mem_7fffffffffef425_120_1032)))
 (let (($x51443 (= (_ bv0 8) ?x52654)))
 (let ((?x48013 (ite $x51443 (_ bv576460752303354967 64) ?x40526)))
 (let ((?x698 ((_ extract 639 632) mem_7fffffffffef425_120_1032)))
 (let (($x52207 (= (_ bv0 8) ?x698)))
 (let ((?x48931 (ite $x52207 (_ bv576460752303354966 64) ?x48013)))
 (let ((?x49408 ((_ extract 647 640) mem_7fffffffffef425_120_1032)))
 (let (($x47643 (= (_ bv0 8) ?x49408)))
 (let ((?x49817 (ite $x47643 (_ bv576460752303354965 64) ?x48931)))
 (let ((?x40766 ((_ extract 655 648) mem_7fffffffffef425_120_1032)))
 (let (($x40800 (= (_ bv0 8) ?x40766)))
 (let ((?x51682 (ite $x40800 (_ bv576460752303354964 64) ?x49817)))
 (let ((?x204 ((_ extract 663 656) mem_7fffffffffef425_120_1032)))
 (let (($x3257 (= (_ bv0 8) ?x204)))
 (let ((?x3249 (ite $x3257 (_ bv576460752303354963 64) ?x51682)))
 (let ((?x49162 ((_ extract 671 664) mem_7fffffffffef425_120_1032)))
 (let (($x49411 (= (_ bv0 8) ?x49162)))
 (let ((?x46065 (ite $x49411 (_ bv576460752303354962 64) ?x3249)))
 (let ((?x45548 ((_ extract 679 672) mem_7fffffffffef425_120_1032)))
 (let (($x47812 (= (_ bv0 8) ?x45548)))
 (let ((?x40794 (ite $x47812 (_ bv576460752303354961 64) ?x46065)))
 (let ((?x45508 ((_ extract 687 680) mem_7fffffffffef425_120_1032)))
 (let (($x2988 (= (_ bv0 8) ?x45508)))
 (let ((?x2836 (ite $x2988 (_ bv576460752303354960 64) ?x40794)))
 (let ((?x47457 ((_ extract 695 688) mem_7fffffffffef425_120_1032)))
 (let (($x352 (= (_ bv0 8) ?x47457)))
 (let ((?x48927 (ite $x352 (_ bv576460752303354959 64) ?x2836)))
 (let ((?x45506 ((_ extract 703 696) mem_7fffffffffef425_120_1032)))
 (let (($x40639 (= (_ bv0 8) ?x45506)))
 (let ((?x40496 (ite $x40639 (_ bv576460752303354958 64) ?x48927)))
 (let ((?x2964 ((_ extract 711 704) mem_7fffffffffef425_120_1032)))
 (let (($x40228 (= (_ bv0 8) ?x2964)))
 (let ((?x2894 (ite $x40228 (_ bv576460752303354957 64) ?x40496)))
 (let ((?x45350 ((_ extract 719 712) mem_7fffffffffef425_120_1032)))
 (let (($x40530 (= (_ bv0 8) ?x45350)))
 (let ((?x40298 (ite $x40530 (_ bv576460752303354956 64) ?x2894)))
 (let ((?x40181 ((_ extract 727 720) mem_7fffffffffef425_120_1032)))
 (let (($x49928 (= (_ bv0 8) ?x40181)))
 (let ((?x51436 (ite $x49928 (_ bv576460752303354955 64) ?x40298)))
 (let ((?x3114 ((_ extract 735 728) mem_7fffffffffef425_120_1032)))
 (let (($x40754 (= (_ bv0 8) ?x3114)))
 (let ((?x3176 (ite $x40754 (_ bv576460752303354954 64) ?x51436)))
 (let ((?x40660 ((_ extract 743 736) mem_7fffffffffef425_120_1032)))
 (let (($x45686 (= (_ bv0 8) ?x40660)))
 (let ((?x108706 (ite $x45686 (_ bv576460752303354953 64) ?x3176)))
 (let ((?x3027 ((_ extract 751 744) mem_7fffffffffef425_120_1032)))
 (let (($x49804 (= (_ bv0 8) ?x3027)))
 (let ((?x51725 (ite $x49804 (_ bv576460752303354952 64) ?x108706)))
 (let ((?x51455 ((_ extract 759 752) mem_7fffffffffef425_120_1032)))
 (let (($x49800 (= (_ bv0 8) ?x51455)))
 (let ((?x45369 (ite $x49800 (_ bv576460752303354951 64) ?x51725)))
 (let ((?x386 ((_ extract 767 760) mem_7fffffffffef425_120_1032)))
 (let (($x51438 (= (_ bv0 8) ?x386)))
 (let ((?x40749 (ite $x51438 (_ bv576460752303354950 64) ?x45369)))
 (let ((?x49405 ((_ extract 775 768) mem_7fffffffffef425_120_1032)))
 (let (($x52209 (= (_ bv0 8) ?x49405)))
 (let ((?x40574 (ite $x52209 (_ bv576460752303354949 64) ?x40749)))
 (let ((?x40468 ((_ extract 783 776) mem_7fffffffffef425_120_1032)))
 (let (($x40605 (= (_ bv0 8) ?x40468)))
 (let ((?x40259 (ite $x40605 (_ bv576460752303354948 64) ?x40574)))
 (let ((?x40825 ((_ extract 791 784) mem_7fffffffffef425_120_1032)))
 (let (($x40685 (= (_ bv0 8) ?x40825)))
 (let ((?x45771 (ite $x40685 (_ bv576460752303354947 64) ?x40259)))
 (let ((?x45270 ((_ extract 799 792) mem_7fffffffffef425_120_1032)))
 (let (($x45820 (= (_ bv0 8) ?x45270)))
 (let ((?x491 (ite $x45820 (_ bv576460752303354946 64) ?x45771)))
 (let ((?x45773 ((_ extract 807 800) mem_7fffffffffef425_120_1032)))
 (let (($x51704 (= (_ bv0 8) ?x45773)))
 (let ((?x50907 (ite $x51704 (_ bv576460752303354945 64) ?x491)))
 (let ((?x49769 ((_ extract 815 808) mem_7fffffffffef425_120_1032)))
 (let (($x51446 (= (_ bv0 8) ?x49769)))
 (let ((?x46091 (ite $x51446 (_ bv576460752303354944 64) ?x50907)))
 (let ((?x2539 ((_ extract 823 816) mem_7fffffffffef425_120_1032)))
 (let (($x52190 (= (_ bv0 8) ?x2539)))
 (let ((?x49629 (ite $x52190 (_ bv576460752303354943 64) ?x46091)))
 (let ((?x40275 ((_ extract 831 824) mem_7fffffffffef425_120_1032)))
 (let (($x40695 (= (_ bv0 8) ?x40275)))
 (let ((?x2662 (ite $x40695 (_ bv576460752303354942 64) ?x49629)))
 (let ((?x3283 ((_ extract 839 832) mem_7fffffffffef425_120_1032)))
 (let (($x49967 (= (_ bv0 8) ?x3283)))
 (let ((?x3307 (ite $x49967 (_ bv576460752303354941 64) ?x2662)))
 (let ((?x49191 ((_ extract 847 840) mem_7fffffffffef425_120_1032)))
 (let (($x47162 (= (_ bv0 8) ?x49191)))
 (let ((?x106163 (ite $x47162 (_ bv576460752303354940 64) ?x3307)))
 (let ((?x49926 ((_ extract 855 848) mem_7fffffffffef425_120_1032)))
 (let (($x52433 (= (_ bv0 8) ?x49926)))
 (let ((?x40492 (ite $x52433 (_ bv576460752303354939 64) ?x106163)))
 (let ((?x52427 ((_ extract 863 856) mem_7fffffffffef425_120_1032)))
 (let (($x3290 (= (_ bv0 8) ?x52427)))
 (let ((?x2851 (ite $x3290 (_ bv576460752303354938 64) ?x40492)))
 (let ((?x3016 ((_ extract 871 864) mem_7fffffffffef425_120_1032)))
 (let (($x2696 (= (_ bv0 8) ?x3016)))
 (let ((?x45778 (ite $x2696 (_ bv576460752303354937 64) ?x2851)))
 (let ((?x51972 ((_ extract 879 872) mem_7fffffffffef425_120_1032)))
 (let (($x51452 (= (_ bv0 8) ?x51972)))
 (let ((?x1680 (ite $x51452 (_ bv576460752303354936 64) ?x45778)))
 (let ((?x40289 ((_ extract 887 880) mem_7fffffffffef425_120_1032)))
 (let (($x2387 (= (_ bv0 8) ?x40289)))
 (let ((?x3206 (ite $x2387 (_ bv576460752303354935 64) ?x1680)))
 (let ((?x394 ((_ extract 895 888) mem_7fffffffffef425_120_1032)))
 (let (($x47645 (= (_ bv0 8) ?x394)))
 (let ((?x52227 (ite $x47645 (_ bv576460752303354934 64) ?x3206)))
 (let ((?x3345 ((_ extract 903 896) mem_7fffffffffef425_120_1032)))
 (let (($x51716 (= (_ bv0 8) ?x3345)))
 (let ((?x51980 (ite $x51716 (_ bv576460752303354933 64) ?x52227)))
 (let ((?x3189 ((_ extract 911 904) mem_7fffffffffef425_120_1032)))
 (let (($x47974 (= (_ bv0 8) ?x3189)))
 (let ((?x2778 (ite $x47974 (_ bv576460752303354932 64) ?x51980)))
 (let ((?x40811 ((_ extract 919 912) mem_7fffffffffef425_120_1032)))
 (let (($x47847 (= (_ bv0 8) ?x40811)))
 (let ((?x2841 (ite $x47847 (_ bv576460752303354931 64) ?x2778)))
 (let ((?x47810 ((_ extract 927 920) mem_7fffffffffef425_120_1032)))
 (let (($x51732 (= (_ bv0 8) ?x47810)))
 (let ((?x47432 (ite $x51732 (_ bv576460752303354930 64) ?x2841)))
 (let ((?x52437 ((_ extract 935 928) mem_7fffffffffef425_120_1032)))
 (let (($x52218 (= (_ bv0 8) ?x52437)))
 (let ((?x40602 (ite $x52218 (_ bv576460752303354929 64) ?x47432)))
 (let ((?x49649 ((_ extract 943 936) mem_7fffffffffef425_120_1032)))
 (let (($x45688 (= (_ bv0 8) ?x49649)))
 (let ((?x2878 (ite $x45688 (_ bv576460752303354928 64) ?x40602)))
 (let ((?x47428 ((_ extract 951 944) mem_7fffffffffef425_120_1032)))
 (let (($x51737 (= (_ bv0 8) ?x47428)))
 (let ((?x52807 (ite $x51737 (_ bv576460752303354927 64) ?x2878)))
 (let ((?x2986 ((_ extract 959 952) mem_7fffffffffef425_120_1032)))
 (let (($x40745 (= (_ bv0 8) ?x2986)))
 (let ((?x52650 (ite $x40745 (_ bv576460752303354926 64) ?x52807)))
 (let ((?x47424 ((_ extract 967 960) mem_7fffffffffef425_120_1032)))
 (let (($x3312 (= (_ bv0 8) ?x47424)))
 (let ((?x2910 (ite $x3312 (_ bv576460752303354925 64) ?x52650)))
 (let ((?x47878 ((_ extract 975 968) mem_7fffffffffef425_120_1032)))
 (let (($x40697 (= (_ bv0 8) ?x47878)))
 (let ((?x45990 (ite $x40697 (_ bv576460752303354924 64) ?x2910)))
 (let ((?x68179 ((_ extract 983 976) mem_7fffffffffef425_120_1032)))
 (let (($x40533 (= (_ bv0 8) ?x68179)))
 (let ((?x4274 (ite $x40533 (_ bv576460752303354923 64) ?x45990)))
 (let ((?x2453 ((_ extract 991 984) mem_7fffffffffef425_120_1032)))
 (let (($x52417 (= (_ bv0 8) ?x2453)))
 (let ((?x49157 (ite $x52417 (_ bv576460752303354922 64) ?x4274)))
 (let ((?x40797 ((_ extract 999 992) mem_7fffffffffef425_120_1032)))
 (let (($x40727 (= (_ bv0 8) ?x40797)))
 (let ((?x49160 (ite $x40727 (_ bv576460752303354921 64) ?x49157)))
 (let ((?x52222 ((_ extract 1007 1000) mem_7fffffffffef425_120_1032)))
 (let (($x47808 (= (_ bv0 8) ?x52222)))
 (let ((?x2826 (ite $x47808 (_ bv576460752303354920 64) ?x49160)))
 (let ((?x48080 ((_ extract 1015 1008) mem_7fffffffffef425_120_1032)))
 (let (($x2619 (= (_ bv0 8) ?x48080)))
 (let ((?x45646 (ite $x2619 (_ bv576460752303354919 64) ?x2826)))
 (let ((?x51447 ((_ extract 1023 1016) mem_7fffffffffef425_120_1032)))
 (let (($x47676 (= (_ bv0 8) ?x51447)))
 (let ((?x2871 (ite $x47676 (_ bv576460752303354918 64) ?x45646)))
 (let ((?x40711 ((_ extract 1031 1024) mem_7fffffffffef425_120_1032)))
 (let (($x49932 (= (_ bv0 8) ?x40711)))
 (let ((?x52440 (ite $x49932 (_ bv576460752303354917 64) ?x2871)))
 (= ?x52440 ?x51999)))))))))))))))))))))))))))))))))))))))))))))))))))))))))))))))))))))))))))))))))))))))))))))))))))))))))))))))))))))))))))))))))))))))))))))))))))))))))))))))))))))))))))))))))))))))
(assert
 (let ((?x51541 ((_ extract 5 0) strlen_121_64)))
 (let ((?x51565 (bvadd (_ bv1 6) ?x51541)))
 (let (($x47533 (bvule (_ bv31 64) strlen_121_64)))
 (let (($x49124 (bvule strlen_121_64 (_ bv18446744073709551614 64))))
 (let (($x49542 (and $x49124 $x47533)))
 (let ((?x47884 (ite $x49542 (_ bv32 6) ?x51565)))
 (bvule ?x47884 (_ bv32 6)))))))))
(assert
 (let ((?x51897 (bvadd (_ bv1 64) strlen_121_64)))
 (let (($x47533 (bvule (_ bv31 64) strlen_121_64)))
 (let (($x49124 (bvule strlen_121_64 (_ bv18446744073709551614 64))))
 (let (($x49542 (and $x49124 $x47533)))
 (let ((?x51624 (ite $x49542 (_ bv32 64) ?x51897)))
 (bvule (_ bv1 64) ?x51624)))))))
(assert
 (let ((?x49408 ((_ extract 647 640) mem_7fffffffffef425_120_1032)))
 (let (($x47643 (= (_ bv0 8) ?x49408)))
 (let ((?x204 ((_ extract 663 656) mem_7fffffffffef425_120_1032)))
 (let (($x3257 (= (_ bv0 8) ?x204)))
 (let ((?x698 ((_ extract 639 632) mem_7fffffffffef425_120_1032)))
 (let (($x52207 (= (_ bv0 8) ?x698)))
 (let ((?x52654 ((_ extract 631 624) mem_7fffffffffef425_120_1032)))
 (let (($x51443 (= (_ bv0 8) ?x52654)))
 (let ((?x47191 ((_ extract 623 616) mem_7fffffffffef425_120_1032)))
 (let (($x45352 (= (_ bv0 8) ?x47191)))
 (let ((?x2964 ((_ extract 711 704) mem_7fffffffffef425_120_1032)))
 (let (($x40228 (= (_ bv0 8) ?x2964)))
 (let ((?x45508 ((_ extract 687 680) mem_7fffffffffef425_120_1032)))
 (let (($x2988 (= (_ bv0 8) ?x45508)))
 (let ((?x3001 ((_ extract 615 608) mem_7fffffffffef425_120_1032)))
 (let (($x2358 (= (_ bv0 8) ?x3001)))
 (let ((?x2959 ((_ extract 567 560) mem_7fffffffffef425_120_1032)))
 (let (($x40382 (= (_ bv0 8) ?x2959)))
 (let ((?x48933 ((_ extract 591 584) mem_7fffffffffef425_120_1032)))
 (let (($x45945 (= (_ bv0 8) ?x48933)))
 (let ((?x3140 ((_ extract 575 568) mem_7fffffffffef425_120_1032)))
 (let (($x47711 (= (_ bv0 8) ?x3140)))
 (let ((?x40251 ((_ extract 559 552) mem_7fffffffffef425_120_1032)))
 (let (($x47906 (= (_ bv0 8) ?x40251)))
 (let ((?x52435 ((_ extract 599 592) mem_7fffffffffef425_120_1032)))
 (let (($x2813 (= (_ bv0 8) ?x52435)))
 (let ((?x40797 ((_ extract 999 992) mem_7fffffffffef425_120_1032)))
 (let (($x40727 (= (_ bv0 8) ?x40797)))
 (let ((?x47878 ((_ extract 975 968) mem_7fffffffffef425_120_1032)))
 (let (($x40697 (= (_ bv0 8) ?x47878)))
 (let ((?x47428 ((_ extract 951 944) mem_7fffffffffef425_120_1032)))
 (let (($x51737 (= (_ bv0 8) ?x47428)))
 (let ((?x52437 ((_ extract 935 928) mem_7fffffffffef425_120_1032)))
 (let (($x52218 (= (_ bv0 8) ?x52437)))
 (let ((?x47810 ((_ extract 927 920) mem_7fffffffffef425_120_1032)))
 (let (($x51732 (= (_ bv0 8) ?x47810)))
 (let ((?x40811 ((_ extract 919 912) mem_7fffffffffef425_120_1032)))
 (let (($x47847 (= (_ bv0 8) ?x40811)))
 (let ((?x49926 ((_ extract 855 848) mem_7fffffffffef425_120_1032)))
 (let (($x52433 (= (_ bv0 8) ?x49926)))
 (let ((?x3345 ((_ extract 903 896) mem_7fffffffffef425_120_1032)))
 (let (($x51716 (= (_ bv0 8) ?x3345)))
 (let ((?x51972 ((_ extract 879 872) mem_7fffffffffef425_120_1032)))
 (let (($x51452 (= (_ bv0 8) ?x51972)))
 (let ((?x40289 ((_ extract 887 880) mem_7fffffffffef425_120_1032)))
 (let (($x2387 (= (_ bv0 8) ?x40289)))
 (let ((?x52427 ((_ extract 863 856) mem_7fffffffffef425_120_1032)))
 (let (($x3290 (= (_ bv0 8) ?x52427)))
 (let ((?x3283 ((_ extract 839 832) mem_7fffffffffef425_120_1032)))
 (let (($x49967 (= (_ bv0 8) ?x3283)))
 (let ((?x3189 ((_ extract 911 904) mem_7fffffffffef425_120_1032)))
 (let (($x47974 (= (_ bv0 8) ?x3189)))
 (let ((?x3016 ((_ extract 871 864) mem_7fffffffffef425_120_1032)))
 (let (($x2696 (= (_ bv0 8) ?x3016)))
 (let ((?x40275 ((_ extract 831 824) mem_7fffffffffef425_120_1032)))
 (let (($x40695 (= (_ bv0 8) ?x40275)))
 (let ((?x2539 ((_ extract 823 816) mem_7fffffffffef425_120_1032)))
 (let (($x52190 (= (_ bv0 8) ?x2539)))
 (let ((?x40468 ((_ extract 783 776) mem_7fffffffffef425_120_1032)))
 (let (($x40605 (= (_ bv0 8) ?x40468)))
 (let ((?x49769 ((_ extract 815 808) mem_7fffffffffef425_120_1032)))
 (let (($x51446 (= (_ bv0 8) ?x49769)))
 (let ((?x68179 ((_ extract 983 976) mem_7fffffffffef425_120_1032)))
 (let (($x40533 (= (_ bv0 8) ?x68179)))
 (let ((?x49191 ((_ extract 847 840) mem_7fffffffffef425_120_1032)))
 (let (($x47162 (= (_ bv0 8) ?x49191)))
 (let ((?x51447 ((_ extract 1023 1016) mem_7fffffffffef425_120_1032)))
 (let (($x47676 (= (_ bv0 8) ?x51447)))
 (let ((?x47424 ((_ extract 967 960) mem_7fffffffffef425_120_1032)))
 (let (($x3312 (= (_ bv0 8) ?x47424)))
 (let ((?x48080 ((_ extract 1015 1008) mem_7fffffffffef425_120_1032)))
 (let (($x2619 (= (_ bv0 8) ?x48080)))
 (let ((?x2986 ((_ extract 959 952) mem_7fffffffffef425_120_1032)))
 (let (($x40745 (= (_ bv0 8) ?x2986)))
 (let ((?x49649 ((_ extract 943 936) mem_7fffffffffef425_120_1032)))
 (let (($x45688 (= (_ bv0 8) ?x49649)))
 (let ((?x45773 ((_ extract 807 800) mem_7fffffffffef425_120_1032)))
 (let (($x51704 (= (_ bv0 8) ?x45773)))
 (let ((?x47457 ((_ extract 695 688) mem_7fffffffffef425_120_1032)))
 (let (($x352 (= (_ bv0 8) ?x47457)))
 (let ((?x3114 ((_ extract 735 728) mem_7fffffffffef425_120_1032)))
 (let (($x40754 (= (_ bv0 8) ?x3114)))
 (let ((?x49162 ((_ extract 671 664) mem_7fffffffffef425_120_1032)))
 (let (($x49411 (= (_ bv0 8) ?x49162)))
 (let ((?x51455 ((_ extract 759 752) mem_7fffffffffef425_120_1032)))
 (let (($x49800 (= (_ bv0 8) ?x51455)))
 (let ((?x40766 ((_ extract 655 648) mem_7fffffffffef425_120_1032)))
 (let (($x40800 (= (_ bv0 8) ?x40766)))
 (let ((?x47973 ((_ extract 583 576) mem_7fffffffffef425_120_1032)))
 (let (($x40613 (= (_ bv0 8) ?x47973)))
 (let ((?x45270 ((_ extract 799 792) mem_7fffffffffef425_120_1032)))
 (let (($x45820 (= (_ bv0 8) ?x45270)))
 (let ((?x40660 ((_ extract 743 736) mem_7fffffffffef425_120_1032)))
 (let (($x45686 (= (_ bv0 8) ?x40660)))
 (let ((?x40825 ((_ extract 791 784) mem_7fffffffffef425_120_1032)))
 (let (($x40685 (= (_ bv0 8) ?x40825)))
 (let ((?x49405 ((_ extract 775 768) mem_7fffffffffef425_120_1032)))
 (let (($x52209 (= (_ bv0 8) ?x49405)))
 (let ((?x386 ((_ extract 767 760) mem_7fffffffffef425_120_1032)))
 (let (($x51438 (= (_ bv0 8) ?x386)))
 (let ((?x3027 ((_ extract 751 744) mem_7fffffffffef425_120_1032)))
 (let (($x49804 (= (_ bv0 8) ?x3027)))
 (let ((?x45350 ((_ extract 719 712) mem_7fffffffffef425_120_1032)))
 (let (($x40530 (= (_ bv0 8) ?x45350)))
 (let ((?x40181 ((_ extract 727 720) mem_7fffffffffef425_120_1032)))
 (let (($x49928 (= (_ bv0 8) ?x40181)))
 (let ((?x45506 ((_ extract 703 696) mem_7fffffffffef425_120_1032)))
 (let (($x40639 (= (_ bv0 8) ?x45506)))
 (let ((?x45548 ((_ extract 679 672) mem_7fffffffffef425_120_1032)))
 (let (($x47812 (= (_ bv0 8) ?x45548)))
 (let ((?x2453 ((_ extract 991 984) mem_7fffffffffef425_120_1032)))
 (let (($x52417 (= (_ bv0 8) ?x2453)))
 (let ((?x52222 ((_ extract 1007 1000) mem_7fffffffffef425_120_1032)))
 (let (($x47808 (= (_ bv0 8) ?x52222)))
 (let ((?x40711 ((_ extract 1031 1024) mem_7fffffffffef425_120_1032)))
 (let (($x49932 (= (_ bv0 8) ?x40711)))
 (let ((?x394 ((_ extract 895 888) mem_7fffffffffef425_120_1032)))
 (let (($x47645 (= (_ bv0 8) ?x394)))
 (let ((?x47846 ((_ extract 607 600) mem_7fffffffffef425_120_1032)))
 (let (($x3269 (= (_ bv0 8) ?x47846)))
 (or $x3269 $x47645 $x49932 $x47808 $x52417 $x47812 $x40639 $x49928 $x40530 $x49804 $x51438 $x52209 $x40685 $x45686 $x45820 $x40613 $x40800 $x49800 $x49411 $x40754 $x352 $x51704 $x45688 $x40745 $x2619 $x3312 $x47676 $x47162 $x40533 $x51446 $x40605 $x52190 $x40695 $x2696 $x47974 $x49967 $x3290 $x2387 $x51452 $x51716 $x52433 $x47847 $x51732 $x52218 $x51737 $x40697 $x40727 $x2813 $x47906 $x47711 $x45945 $x40382 $x2358 $x2988 $x40228 $x45352 $x51443 $x52207 $x3257 $x47643))))))))))))))))))))))))))))))))))))))))))))))))))))))))))))))))))))))))))))))))))))))))))))))))))))))))))))))))))))))))))
(assert
 (let (($x47533 (bvule (_ bv31 64) strlen_121_64)))
 (let (($x52305 (not $x47533)))
 (let (($x49124 (bvule strlen_121_64 (_ bv18446744073709551614 64))))
 (let (($x49788 (not $x49124)))
 (let (($x49973 (or $x49788 $x52305)))
 (let (($x46292 (not $x49973)))
 (let ((?x51897 (bvadd (_ bv1 64) strlen_121_64)))
 (let ((?x51898 ((_ extract 63 6) ?x51897)))
 (let (($x49051 (= (_ bv0 58) ?x51898)))
 (or $x49051 $x46292)))))))))))
(assert
 (let (($x3154 (= (_ bv4294967295 32) access_144_32)))
 (let (($x111535 (= (_ bv0 32) access_144_32)))
 (or $x111535 $x3154))))
(assert
 (and (distinct (_ bv0 32) access_144_32) true))
(assert
 (let (($x119364 (= (_ bv4294967295 32) access_735_32)))
 (let (($x276343 (= (_ bv0 32) access_735_32)))
 (or $x276343 $x119364))))
(assert
 (= (_ bv0 32) access_735_32))
(assert
 (let ((?x490288 ((_ extract 15 8) mem_2c_3020_264)))
 (let (($x490902 (= (_ bv0 8) ?x490288)))
 (let ((?x494242 ((_ extract 23 16) mem_2c_3020_264)))
 (let (($x490287 (= (_ bv0 8) ?x494242)))
 (let ((?x482175 ((_ extract 31 24) mem_2c_3020_264)))
 (let (($x494171 (= (_ bv0 8) ?x482175)))
 (let ((?x485465 ((_ extract 39 32) mem_2c_3020_264)))
 (let (($x486624 (= (_ bv0 8) ?x485465)))
 (let ((?x494153 ((_ extract 47 40) mem_2c_3020_264)))
 (let (($x490648 (= (_ bv0 8) ?x494153)))
 (let ((?x486536 ((_ extract 55 48) mem_2c_3020_264)))
 (let (($x490602 (= (_ bv0 8) ?x486536)))
 (let ((?x494821 ((_ extract 63 56) mem_2c_3020_264)))
 (let (($x494262 (= (_ bv0 8) ?x494821)))
 (let ((?x486059 ((_ extract 71 64) mem_2c_3020_264)))
 (let (($x494150 (= (_ bv0 8) ?x486059)))
 (let ((?x485533 ((_ extract 79 72) mem_2c_3020_264)))
 (let (($x484982 (= (_ bv0 8) ?x485533)))
 (let ((?x490721 ((_ extract 87 80) mem_2c_3020_264)))
 (let (($x494241 (= (_ bv0 8) ?x490721)))
 (let ((?x485116 ((_ extract 95 88) mem_2c_3020_264)))
 (let (($x490627 (= (_ bv0 8) ?x485116)))
 (let ((?x494231 ((_ extract 103 96) mem_2c_3020_264)))
 (let (($x494118 (= (_ bv0 8) ?x494231)))
 (let ((?x486315 ((_ extract 111 104) mem_2c_3020_264)))
 (let (($x494590 (= (_ bv0 8) ?x486315)))
 (let ((?x494249 ((_ extract 119 112) mem_2c_3020_264)))
 (let (($x494159 (= (_ bv0 8) ?x494249)))
 (let ((?x490650 ((_ extract 127 120) mem_2c_3020_264)))
 (let (($x490914 (= (_ bv0 8) ?x490650)))
 (let ((?x484213 ((_ extract 135 128) mem_2c_3020_264)))
 (let (($x494154 (= (_ bv0 8) ?x484213)))
 (let ((?x494263 ((_ extract 143 136) mem_2c_3020_264)))
 (let (($x494250 (= (_ bv0 8) ?x494263)))
 (let ((?x494246 ((_ extract 151 144) mem_2c_3020_264)))
 (let (($x486388 (= (_ bv0 8) ?x494246)))
 (let ((?x494050 ((_ extract 159 152) mem_2c_3020_264)))
 (let (($x494167 (= (_ bv0 8) ?x494050)))
 (let ((?x490322 ((_ extract 167 160) mem_2c_3020_264)))
 (let (($x490890 (= (_ bv0 8) ?x490322)))
 (let ((?x485178 ((_ extract 175 168) mem_2c_3020_264)))
 (let (($x494151 (= (_ bv0 8) ?x485178)))
 (let ((?x494183 ((_ extract 183 176) mem_2c_3020_264)))
 (let (($x486557 (= (_ bv0 8) ?x494183)))
 (let ((?x494139 ((_ extract 191 184) mem_2c_3020_264)))
 (let (($x485098 (= (_ bv0 8) ?x494139)))
 (let ((?x494058 ((_ extract 199 192) mem_2c_3020_264)))
 (let (($x494864 (= (_ bv0 8) ?x494058)))
 (let ((?x494601 ((_ extract 207 200) mem_2c_3020_264)))
 (let (($x490872 (= (_ bv0 8) ?x494601)))
 (let ((?x486404 ((_ extract 215 208) mem_2c_3020_264)))
 (let (($x494268 (= (_ bv0 8) ?x486404)))
 (let ((?x486358 ((_ extract 223 216) mem_2c_3020_264)))
 (let (($x494610 (= (_ bv0 8) ?x486358)))
 (let ((?x494257 ((_ extract 231 224) mem_2c_3020_264)))
 (let (($x485578 (= (_ bv0 8) ?x494257)))
 (let ((?x494093 ((_ extract 239 232) mem_2c_3020_264)))
 (let (($x490699 (= (_ bv0 8) ?x494093)))
 (let ((?x494091 ((_ extract 247 240) mem_2c_3020_264)))
 (let (($x485514 (= (_ bv0 8) ?x494091)))
 (let ((?x486632 ((_ extract 255 248) mem_2c_3020_264)))
 (let (($x490596 (= (_ bv0 8) ?x486632)))
 (let ((?x490865 ((_ extract 263 256) mem_2c_3020_264)))
 (let (($x486603 (= (_ bv0 8) ?x490865)))
 (or $x486603 $x490596 $x485514 $x490699 $x485578 $x494610 $x494268 $x490872 $x494864 $x485098 $x486557 $x494151 $x490890 $x494167 $x486388 $x494250 $x494154 $x490914 $x494159 $x494590 $x494118 $x490627 $x494241 $x484982 $x494150 $x494262 $x490602 $x490648 $x486624 $x494171 $x490287 $x490902))))))))))))))))))))))))))))))))))))))))))))))))))))))))))))))))))
(assert
 (let ((?x490288 ((_ extract 15 8) mem_2c_3020_264)))
 (let (($x490902 (= (_ bv0 8) ?x490288)))
 (let ((?x486546 (ite $x490902 (_ bv75 64) (_ bv0 64))))
 (let ((?x494242 ((_ extract 23 16) mem_2c_3020_264)))
 (let (($x490287 (= (_ bv0 8) ?x494242)))
 (let ((?x494853 (ite $x490287 (_ bv74 64) ?x486546)))
 (let ((?x482175 ((_ extract 31 24) mem_2c_3020_264)))
 (let (($x494171 (= (_ bv0 8) ?x482175)))
 (let ((?x494229 (ite $x494171 (_ bv73 64) ?x494853)))
 (let ((?x485465 ((_ extract 39 32) mem_2c_3020_264)))
 (let (($x486624 (= (_ bv0 8) ?x485465)))
 (let ((?x494602 (ite $x486624 (_ bv72 64) ?x494229)))
 (let ((?x494153 ((_ extract 47 40) mem_2c_3020_264)))
 (let (($x490648 (= (_ bv0 8) ?x494153)))
 (let ((?x494055 (ite $x490648 (_ bv71 64) ?x494602)))
 (let ((?x486536 ((_ extract 55 48) mem_2c_3020_264)))
 (let (($x490602 (= (_ bv0 8) ?x486536)))
 (let ((?x490647 (ite $x490602 (_ bv70 64) ?x494055)))
 (let ((?x494821 ((_ extract 63 56) mem_2c_3020_264)))
 (let (($x494262 (= (_ bv0 8) ?x494821)))
 (let ((?x490918 (ite $x494262 (_ bv69 64) ?x490647)))
 (let ((?x486059 ((_ extract 71 64) mem_2c_3020_264)))
 (let (($x494150 (= (_ bv0 8) ?x486059)))
 (let ((?x486348 (ite $x494150 (_ bv68 64) ?x490918)))
 (let ((?x485533 ((_ extract 79 72) mem_2c_3020_264)))
 (let (($x484982 (= (_ bv0 8) ?x485533)))
 (let ((?x494179 (ite $x484982 (_ bv67 64) ?x486348)))
 (let ((?x490721 ((_ extract 87 80) mem_2c_3020_264)))
 (let (($x494241 (= (_ bv0 8) ?x490721)))
 (let ((?x494040 (ite $x494241 (_ bv66 64) ?x494179)))
 (let ((?x485116 ((_ extract 95 88) mem_2c_3020_264)))
 (let (($x490627 (= (_ bv0 8) ?x485116)))
 (let ((?x494569 (ite $x490627 (_ bv65 64) ?x494040)))
 (let ((?x494231 ((_ extract 103 96) mem_2c_3020_264)))
 (let (($x494118 (= (_ bv0 8) ?x494231)))
 (let ((?x490138 (ite $x494118 (_ bv64 64) ?x494569)))
 (let ((?x486315 ((_ extract 111 104) mem_2c_3020_264)))
 (let (($x494590 (= (_ bv0 8) ?x486315)))
 (let ((?x486610 (ite $x494590 (_ bv63 64) ?x490138)))
 (let ((?x494249 ((_ extract 119 112) mem_2c_3020_264)))
 (let (($x494159 (= (_ bv0 8) ?x494249)))
 (let ((?x485839 (ite $x494159 (_ bv62 64) ?x486610)))
 (let ((?x490650 ((_ extract 127 120) mem_2c_3020_264)))
 (let (($x490914 (= (_ bv0 8) ?x490650)))
 (let ((?x483772 (ite $x490914 (_ bv61 64) ?x485839)))
 (let ((?x484213 ((_ extract 135 128) mem_2c_3020_264)))
 (let (($x494154 (= (_ bv0 8) ?x484213)))
 (let ((?x494158 (ite $x494154 (_ bv60 64) ?x483772)))
 (let ((?x494263 ((_ extract 143 136) mem_2c_3020_264)))
 (let (($x494250 (= (_ bv0 8) ?x494263)))
 (let ((?x490623 (ite $x494250 (_ bv59 64) ?x494158)))
 (let ((?x494246 ((_ extract 151 144) mem_2c_3020_264)))
 (let (($x486388 (= (_ bv0 8) ?x494246)))
 (let ((?x485774 (ite $x486388 (_ bv58 64) ?x490623)))
 (let ((?x494050 ((_ extract 159 152) mem_2c_3020_264)))
 (let (($x494167 (= (_ bv0 8) ?x494050)))
 (let ((?x490616 (ite $x494167 (_ bv57 64) ?x485774)))
 (let ((?x490322 ((_ extract 167 160) mem_2c_3020_264)))
 (let (($x490890 (= (_ bv0 8) ?x490322)))
 (let ((?x486070 (ite $x490890 (_ bv56 64) ?x490616)))
 (let ((?x485178 ((_ extract 175 168) mem_2c_3020_264)))
 (let (($x494151 (= (_ bv0 8) ?x485178)))
 (let ((?x490978 (ite $x494151 (_ bv55 64) ?x486070)))
 (let ((?x494183 ((_ extract 183 176) mem_2c_3020_264)))
 (let (($x486557 (= (_ bv0 8) ?x494183)))
 (let ((?x494181 (ite $x486557 (_ bv54 64) ?x490978)))
 (let ((?x494139 ((_ extract 191 184) mem_2c_3020_264)))
 (let (($x485098 (= (_ bv0 8) ?x494139)))
 (let ((?x494258 (ite $x485098 (_ bv53 64) ?x494181)))
 (let ((?x494058 ((_ extract 199 192) mem_2c_3020_264)))
 (let (($x494864 (= (_ bv0 8) ?x494058)))
 (let ((?x490856 (ite $x494864 (_ bv52 64) ?x494258)))
 (let ((?x494601 ((_ extract 207 200) mem_2c_3020_264)))
 (let (($x490872 (= (_ bv0 8) ?x494601)))
 (let ((?x486196 (ite $x490872 (_ bv51 64) ?x490856)))
 (let ((?x486404 ((_ extract 215 208) mem_2c_3020_264)))
 (let (($x494268 (= (_ bv0 8) ?x486404)))
 (let ((?x490705 (ite $x494268 (_ bv50 64) ?x486196)))
 (let ((?x486358 ((_ extract 223 216) mem_2c_3020_264)))
 (let (($x494610 (= (_ bv0 8) ?x486358)))
 (let ((?x494182 (ite $x494610 (_ bv49 64) ?x490705)))
 (let ((?x494257 ((_ extract 231 224) mem_2c_3020_264)))
 (let (($x485578 (= (_ bv0 8) ?x494257)))
 (let ((?x486042 (ite $x485578 (_ bv48 64) ?x494182)))
 (let ((?x494093 ((_ extract 239 232) mem_2c_3020_264)))
 (let (($x490699 (= (_ bv0 8) ?x494093)))
 (let ((?x494142 (ite $x490699 (_ bv47 64) ?x486042)))
 (let ((?x494091 ((_ extract 247 240) mem_2c_3020_264)))
 (let (($x485514 (= (_ bv0 8) ?x494091)))
 (let ((?x486247 (ite $x485514 (_ bv46 64) ?x494142)))
 (let ((?x486632 ((_ extract 255 248) mem_2c_3020_264)))
 (let (($x490596 (= (_ bv0 8) ?x486632)))
 (let ((?x490296 (ite $x490596 (_ bv45 64) ?x486247)))
 (let ((?x490865 ((_ extract 263 256) mem_2c_3020_264)))
 (let (($x486603 (= (_ bv0 8) ?x490865)))
 (let ((?x494558 (ite $x486603 (_ bv44 64) ?x490296)))
 (let ((?x494815 (bvsub ?x494558 (_ bv44 64))))
 (= ?x494815 strlen_3021_64)))))))))))))))))))))))))))))))))))))))))))))))))))))))))))))))))))))))))))))))))))))))))))))))))))
(maximize strlen_85_64)
(minimize strlen_3021_64)
(minimize access_735_32)
(minimize strlen_83_64)
(minimize strlen_85_64)
(maximize filesize_file_0_/proc/self/loginuid_88_64)
(minimize strncmp_ret_84_32)
(maximize syscall_stub_ioctl_94_32)
(maximize access_144_32)
(maximize strncmp_ret_86_32)
(minimize mem_2c_3020_264)
(minimize args_1_8)
(minimize strncmp_ret_86_32)
(maximize mem_7fffffffffef425_120_1032)
(maximize access_735_32)
(check-sat)
(get-objectives)
